187056.0
3717
0 1 2 3 4 6 7 8 10 11 13 14 15 16 17 19 20 21 22 23 24 25 26 27 28 29 31 32 33 36 39 40 41 42 44 45 46 47 49 50 52 55 56 59 60 61 62 63 64 65 71 74 76 77 78 79 82 83 84 85 89 90 92 93 94 95 96 99 100 101 102 104 105 106 109 111 112 113 115 117 123 124 125 126 129 130 131 132 133 135 136 138 139 140 142 143 144 147 148 149 150 151 153 154 156 157 158 160 161 162 163 164 165 166 167 168 169 172 173 174 175 176 177 178 179 180 181 182 184 186 187 188 189 190 192 193 194 196 197 199 